c nIsolatedPIs 16
c maxPI 8
p cnf 38 91
c gate 9 1 8 0
1 -9 0
8 -9 0
-1 -8 9 0
c gate 10 2 7 0
2 -10 0
7 -10 0
-2 -7 10 0
c gate 11 3 6 0
3 -11 0
6 -11 0
-3 -6 11 0
c gate 12 4 5 0
4 -12 0
5 -12 0
-4 -5 12 0
c gate 13 -11 -12 0
-11 -13 0
-12 -13 0
11 12 13 0
c gate 14 11 12 0
11 -14 0
12 -14 0
-11 -12 14 0
c gate 15 -13 -14 0
-13 -15 0
-14 -15 0
13 14 15 0
c gate 16 -10 -15 0
-10 -16 0
-15 -16 0
10 15 16 0
c gate 17 10 15 0
10 -17 0
15 -17 0
-10 -15 17 0
c gate 18 -16 -17 0
-16 -18 0
-17 -18 0
16 17 18 0
c gate 19 3 5 0
3 -19 0
5 -19 0
-3 -5 19 0
c gate 20 2 6 0
2 -20 0
6 -20 0
-2 -6 20 0
c gate 21 19 20 0
19 -21 0
20 -21 0
-19 -20 21 0
c gate 22 -19 -20 0
-19 -22 0
-20 -22 0
19 20 22 0
c gate 23 1 7 0
1 -23 0
7 -23 0
-1 -7 23 0
c gate 24 -22 23 0
-22 -24 0
23 -24 0
22 -23 24 0
c gate 25 -21 -24 0
-21 -25 0
-24 -25 0
21 24 25 0
c gate 26 -18 25 0
-18 -26 0
25 -26 0
18 -25 26 0
c gate 27 18 -25 0
18 -27 0
-25 -27 0
-18 25 27 0
c gate 28 -26 -27 0
-26 -28 0
-27 -28 0
26 27 28 0
c gate 29 -9 -28 0
-9 -29 0
-28 -29 0
9 28 29 0
c gate 30 9 28 0
9 -30 0
28 -30 0
-9 -28 30 0
c gate 31 3 7 0
3 -31 0
7 -31 0
-3 -7 31 0
c gate 32 -3 -7 0
-3 -32 0
-7 -32 0
3 7 32 0
c gate 33 -31 -32 0
-31 -33 0
-32 -33 0
31 32 33 0
c gate 34 1 5 0
1 -34 0
5 -34 0
-1 -5 34 0
c gate 35 20 34 0
20 -35 0
34 -35 0
-20 -34 35 0
c gate 36 -33 35 0
-33 -36 0
35 -36 0
33 -35 36 0
c gate 37 -30 36 0
-30 -37 0
36 -37 0
30 -36 37 0
c gate 38 -29 37 0
-29 -38 0
37 -38 0
29 -37 38 0
c PO
38 0
